(declare-fun b739 () (_ FloatingPoint 8 24))
(declare-fun b442 () (_ FloatingPoint 11 53))
(declare-fun b791 () (_ FloatingPoint 8 24))
(declare-fun b901 () (_ FloatingPoint 8 24))
(declare-fun b826 () (_ FloatingPoint 8 24))
(declare-fun b755 () (_ FloatingPoint 8 24))
(declare-fun b760 () (_ FloatingPoint 8 24))
(declare-fun b452 () (_ FloatingPoint 8 24))
(declare-fun b896 () (_ FloatingPoint 8 24))
(declare-fun b1029 () (_ FloatingPoint 8 24))
(declare-fun b121 () (_ FloatingPoint 8 24))
(declare-fun b124 () (_ FloatingPoint 11 53))
(declare-fun b135 () (_ FloatingPoint 11 53))
(declare-fun b936 () (_ FloatingPoint 8 24))
(declare-fun b866 () (_ FloatingPoint 8 24))
(declare-fun b126 () (_ FloatingPoint 8 24))
(declare-fun b1001 () (_ FloatingPoint 8 24))
(declare-fun b966 () (_ FloatingPoint 8 24))
(declare-fun b831 () (_ FloatingPoint 8 24))
(declare-fun b119 () (_ FloatingPoint 8 24))
(declare-fun b971 () (_ FloatingPoint 8 24))
(declare-fun b1020 () (_ FloatingPoint 8 24))
(declare-fun b931 () (_ FloatingPoint 8 24))
(declare-fun b796 () (_ FloatingPoint 8 24))
(declare-fun b734 () (_ FloatingPoint 8 24))
(declare-fun b861 () (_ FloatingPoint 8 24))
(assert (let ((.def_350 (fp.leq b734 b452)))
(let ((.def_351 (not .def_350)))
(let ((.def_11 (fp.div RNE b119 b121)))
(let ((.def_12 ((_ to_fp 11 53) RNE .def_11)))
(let ((.def_14 (fp.mul RNE .def_12 b135)))
(let ((.def_15 (fp.mul RNE .def_11 .def_11)))
(let ((.def_16 (fp.neg .def_15)))
(let ((.def_17 (fp.add RNE b119 .def_16)))
(let ((.def_18 ((_ to_fp 11 53) RNE .def_17)))
(let ((.def_19 (fp.div RNE .def_18 .def_14)))
(let ((.def_20 ((_ to_fp 8 24) RNE .def_19)))
(let ((.def_21 (fp.add RNE .def_11 .def_20)))
(let ((.def_22 (fp.mul RNE .def_21 .def_21)))
(let ((.def_23 (fp.neg .def_22)))
(let ((.def_24 (fp.add RNE b119 .def_23)))
(let ((.def_25 ((_ to_fp 11 53) RNE .def_24)))
(let ((.def_26 ((_ to_fp 8 24) RNE .def_25)))
(let ((.def_346 (fp.neg .def_26)))
(let ((.def_347 (= b1029 .def_346)))
(let ((.def_343 (fp.leq b126 .def_26)))
(let ((.def_344 (not .def_343)))
(let ((.def_30 ((_ to_fp 11 53) RNE .def_21)))
(let ((.def_31 (fp.mul RNE b135 .def_30)))
(let ((.def_32 (fp.div RNE .def_25 .def_31)))
(let ((.def_33 ((_ to_fp 8 24) RNE .def_32)))
(let ((.def_34 (fp.add RNE .def_21 .def_33)))
(let ((.def_35 (fp.mul RNE .def_34 .def_34)))
(let ((.def_36 (fp.neg .def_35)))
(let ((.def_37 (fp.add RNE b119 .def_36)))
(let ((.def_38 ((_ to_fp 11 53) RNE .def_37)))
(let ((.def_39 ((_ to_fp 8 24) RNE .def_38)))
(let ((.def_339 (fp.neg .def_39)))
(let ((.def_340 (= b1020 .def_339)))
(let ((.def_336 (fp.leq b126 .def_39)))
(let ((.def_337 (not .def_336)))
(let ((.def_332 ((_ to_fp 11 53) RNE b1020)))
(let ((.def_333 (fp.leq .def_332 b124)))
(let ((.def_334 (not .def_333)))
(let ((.def_328 ((_ to_fp 11 53) RNE b1029)))
(let ((.def_329 (fp.leq .def_328 b124)))
(let ((.def_326 (= .def_21 b971)))
(let ((.def_46 ((_ to_fp 11 53) RNE b971)))
(let ((.def_47 (fp.mul RNE b135 .def_46)))
(let ((.def_48 (fp.mul RNE b971 b971)))
(let ((.def_49 (fp.neg .def_48)))
(let ((.def_50 (fp.add RNE b119 .def_49)))
(let ((.def_51 ((_ to_fp 11 53) RNE .def_50)))
(let ((.def_52 (fp.div RNE .def_51 .def_47)))
(let ((.def_53 ((_ to_fp 8 24) RNE .def_52)))
(let ((.def_54 (fp.add RNE b971 .def_53)))
(let ((.def_55 (fp.mul RNE .def_54 .def_54)))
(let ((.def_56 (fp.neg .def_55)))
(let ((.def_57 (fp.add RNE b119 .def_56)))
(let ((.def_58 ((_ to_fp 11 53) RNE .def_57)))
(let ((.def_59 ((_ to_fp 8 24) RNE .def_58)))
(let ((.def_322 (fp.neg .def_59)))
(let ((.def_323 (= b1001 .def_322)))
(let ((.def_319 (fp.leq b126 .def_59)))
(let ((.def_320 (not .def_319)))
(let ((.def_315 ((_ to_fp 11 53) RNE b1001)))
(let ((.def_316 (fp.leq .def_315 b124)))
(let ((.def_317 (not .def_316)))
(let ((.def_312 (= b971 b936)))
(let ((.def_66 ((_ to_fp 11 53) RNE b936)))
(let ((.def_67 (fp.mul RNE b135 .def_66)))
(let ((.def_68 (fp.mul RNE b936 b936)))
(let ((.def_69 (fp.neg .def_68)))
(let ((.def_70 (fp.add RNE b119 .def_69)))
(let ((.def_71 ((_ to_fp 11 53) RNE .def_70)))
(let ((.def_72 (fp.div RNE .def_71 .def_67)))
(let ((.def_73 ((_ to_fp 8 24) RNE .def_72)))
(let ((.def_74 (fp.add RNE b936 .def_73)))
(let ((.def_75 (fp.mul RNE .def_74 .def_74)))
(let ((.def_76 (fp.neg .def_75)))
(let ((.def_77 (fp.add RNE b119 .def_76)))
(let ((.def_78 ((_ to_fp 11 53) RNE .def_77)))
(let ((.def_79 ((_ to_fp 8 24) RNE .def_78)))
(let ((.def_308 (fp.neg .def_79)))
(let ((.def_309 (= b966 .def_308)))
(let ((.def_305 (fp.leq b126 .def_79)))
(let ((.def_306 (not .def_305)))
(let ((.def_301 ((_ to_fp 11 53) RNE b966)))
(let ((.def_302 (fp.leq .def_301 b124)))
(let ((.def_303 (not .def_302)))
(let ((.def_298 (= b936 b901)))
(let ((.def_86 ((_ to_fp 11 53) RNE b901)))
(let ((.def_87 (fp.mul RNE b135 .def_86)))
(let ((.def_88 (fp.mul RNE b901 b901)))
(let ((.def_89 (fp.neg .def_88)))
(let ((.def_90 (fp.add RNE b119 .def_89)))
(let ((.def_91 ((_ to_fp 11 53) RNE .def_90)))
(let ((.def_92 (fp.div RNE .def_91 .def_87)))
(let ((.def_93 ((_ to_fp 8 24) RNE .def_92)))
(let ((.def_94 (fp.add RNE b901 .def_93)))
(let ((.def_95 (fp.mul RNE .def_94 .def_94)))
(let ((.def_96 (fp.neg .def_95)))
(let ((.def_97 (fp.add RNE b119 .def_96)))
(let ((.def_98 ((_ to_fp 11 53) RNE .def_97)))
(let ((.def_99 ((_ to_fp 8 24) RNE .def_98)))
(let ((.def_294 (fp.neg .def_99)))
(let ((.def_295 (= b931 .def_294)))
(let ((.def_291 (fp.leq b126 .def_99)))
(let ((.def_292 (not .def_291)))
(let ((.def_287 ((_ to_fp 11 53) RNE b931)))
(let ((.def_288 (fp.leq .def_287 b124)))
(let ((.def_289 (not .def_288)))
(let ((.def_284 (= b901 b866)))
(let ((.def_106 ((_ to_fp 11 53) RNE b866)))
(let ((.def_107 (fp.mul RNE b135 .def_106)))
(let ((.def_108 (fp.mul RNE b866 b866)))
(let ((.def_109 (fp.neg .def_108)))
(let ((.def_110 (fp.add RNE b119 .def_109)))
(let ((.def_111 ((_ to_fp 11 53) RNE .def_110)))
(let ((.def_112 (fp.div RNE .def_111 .def_107)))
(let ((.def_113 ((_ to_fp 8 24) RNE .def_112)))
(let ((.def_114 (fp.add RNE b866 .def_113)))
(let ((.def_115 (fp.mul RNE .def_114 .def_114)))
(let ((.def_116 (fp.neg .def_115)))
(let ((.def_117 (fp.add RNE b119 .def_116)))
(let ((.def_118 ((_ to_fp 11 53) RNE .def_117)))
(let ((.def_119 ((_ to_fp 8 24) RNE .def_118)))
(let ((.def_280 (fp.neg .def_119)))
(let ((.def_281 (= b896 .def_280)))
(let ((.def_277 (fp.leq b126 .def_119)))
(let ((.def_278 (not .def_277)))
(let ((.def_273 ((_ to_fp 11 53) RNE b896)))
(let ((.def_274 (fp.leq .def_273 b124)))
(let ((.def_275 (not .def_274)))
(let ((.def_270 (= b866 b831)))
(let ((.def_126 ((_ to_fp 11 53) RNE b831)))
(let ((.def_127 (fp.mul RNE b135 .def_126)))
(let ((.def_128 (fp.mul RNE b831 b831)))
(let ((.def_129 (fp.neg .def_128)))
(let ((.def_130 (fp.add RNE b119 .def_129)))
(let ((.def_131 ((_ to_fp 11 53) RNE .def_130)))
(let ((.def_132 (fp.div RNE .def_131 .def_127)))
(let ((.def_133 ((_ to_fp 8 24) RNE .def_132)))
(let ((.def_134 (fp.add RNE b831 .def_133)))
(let ((.def_135 (fp.mul RNE .def_134 .def_134)))
(let ((.def_136 (fp.neg .def_135)))
(let ((.def_137 (fp.add RNE b119 .def_136)))
(let ((.def_138 ((_ to_fp 11 53) RNE .def_137)))
(let ((.def_139 ((_ to_fp 8 24) RNE .def_138)))
(let ((.def_266 (fp.neg .def_139)))
(let ((.def_267 (= b861 .def_266)))
(let ((.def_263 (fp.leq b126 .def_139)))
(let ((.def_264 (not .def_263)))
(let ((.def_259 ((_ to_fp 11 53) RNE b861)))
(let ((.def_260 (fp.leq .def_259 b124)))
(let ((.def_261 (not .def_260)))
(let ((.def_256 (= b831 b796)))
(let ((.def_146 ((_ to_fp 11 53) RNE b796)))
(let ((.def_147 (fp.mul RNE b135 .def_146)))
(let ((.def_148 (fp.mul RNE b796 b796)))
(let ((.def_149 (fp.neg .def_148)))
(let ((.def_150 (fp.add RNE b119 .def_149)))
(let ((.def_151 ((_ to_fp 11 53) RNE .def_150)))
(let ((.def_152 (fp.div RNE .def_151 .def_147)))
(let ((.def_153 ((_ to_fp 8 24) RNE .def_152)))
(let ((.def_154 (fp.add RNE b796 .def_153)))
(let ((.def_155 (fp.mul RNE .def_154 .def_154)))
(let ((.def_156 (fp.neg .def_155)))
(let ((.def_157 (fp.add RNE b119 .def_156)))
(let ((.def_158 ((_ to_fp 11 53) RNE .def_157)))
(let ((.def_159 ((_ to_fp 8 24) RNE .def_158)))
(let ((.def_252 (fp.neg .def_159)))
(let ((.def_253 (= b826 .def_252)))
(let ((.def_249 (fp.leq b126 .def_159)))
(let ((.def_250 (not .def_249)))
(let ((.def_245 ((_ to_fp 11 53) RNE b826)))
(let ((.def_246 (fp.leq .def_245 b124)))
(let ((.def_247 (not .def_246)))
(let ((.def_242 (= b796 b760)))
(let ((.def_166 ((_ to_fp 11 53) RNE b760)))
(let ((.def_167 (fp.mul RNE b135 .def_166)))
(let ((.def_168 (fp.mul RNE b760 b760)))
(let ((.def_169 (fp.neg .def_168)))
(let ((.def_170 (fp.add RNE b119 .def_169)))
(let ((.def_171 ((_ to_fp 11 53) RNE .def_170)))
(let ((.def_172 (fp.div RNE .def_171 .def_167)))
(let ((.def_173 ((_ to_fp 8 24) RNE .def_172)))
(let ((.def_174 (fp.add RNE b760 .def_173)))
(let ((.def_175 (fp.mul RNE .def_174 .def_174)))
(let ((.def_176 (fp.neg .def_175)))
(let ((.def_177 (fp.add RNE b119 .def_176)))
(let ((.def_178 ((_ to_fp 11 53) RNE .def_177)))
(let ((.def_179 ((_ to_fp 8 24) RNE .def_178)))
(let ((.def_238 (fp.neg .def_179)))
(let ((.def_239 (= b791 .def_238)))
(let ((.def_235 (fp.leq b126 .def_179)))
(let ((.def_236 (not .def_235)))
(let ((.def_230 ((_ to_fp 11 53) RNE b791)))
(let ((.def_232 (fp.leq .def_230 b124)))
(let ((.def_233 (not .def_232)))
(let ((.def_227 (= b760 b739)))
(let ((.def_186 ((_ to_fp 11 53) RNE b739)))
(let ((.def_187 (fp.mul RNE b135 .def_186)))
(let ((.def_188 (fp.mul RNE b739 b739)))
(let ((.def_189 (fp.neg .def_188)))
(let ((.def_190 (fp.add RNE b119 .def_189)))
(let ((.def_191 ((_ to_fp 11 53) RNE .def_190)))
(let ((.def_192 (fp.div RNE .def_191 .def_187)))
(let ((.def_193 ((_ to_fp 8 24) RNE .def_192)))
(let ((.def_194 (fp.add RNE b739 .def_193)))
(let ((.def_195 (fp.mul RNE .def_194 .def_194)))
(let ((.def_196 (fp.neg .def_195)))
(let ((.def_197 (fp.add RNE b119 .def_196)))
(let ((.def_198 ((_ to_fp 11 53) RNE .def_197)))
(let ((.def_199 ((_ to_fp 8 24) RNE .def_198)))
(let ((.def_223 (fp.neg .def_199)))
(let ((.def_224 (= b755 .def_223)))
(let ((.def_220 (fp.leq b126 .def_199)))
(let ((.def_221 (not .def_220)))
(let ((.def_204 ((_ to_fp 8 24) RNE b442)))
(let ((.def_216 (fp.neg .def_204)))
(let ((.def_217 (= b734 .def_216)))
(let ((.def_213 (fp.leq b126 .def_204)))
(let ((.def_214 (not .def_213)))
(let ((.def_211 (fp.leq b126 b119)))
(let ((.def_209 (fp.eq b119 b126)))
(let ((.def_210 (not .def_209)))
(let ((.def_212 (and .def_210 .def_211)))
(let ((.def_215 (and .def_212 .def_214)))
(let ((.def_218 (and .def_215 .def_217)))
(let ((.def_206 (= .def_204 b734)))
(let ((.def_207 (not .def_206)))
(let ((.def_219 (and .def_207 .def_218)))
(let ((.def_222 (and .def_219 .def_221)))
(let ((.def_225 (and .def_222 .def_224)))
(let ((.def_201 (= .def_199 b755)))
(let ((.def_202 (not .def_201)))
(let ((.def_226 (and .def_202 .def_225)))
(let ((.def_228 (and .def_226 .def_227)))
(let ((.def_184 (= .def_174 b739)))
(let ((.def_185 (not .def_184)))
(let ((.def_229 (and .def_185 .def_228)))
(let ((.def_234 (and .def_229 .def_233)))
(let ((.def_237 (and .def_234 .def_236)))
(let ((.def_240 (and .def_237 .def_239)))
(let ((.def_181 (= .def_179 b791)))
(let ((.def_182 (not .def_181)))
(let ((.def_241 (and .def_182 .def_240)))
(let ((.def_243 (and .def_241 .def_242)))
(let ((.def_164 (= .def_154 b760)))
(let ((.def_165 (not .def_164)))
(let ((.def_244 (and .def_165 .def_243)))
(let ((.def_248 (and .def_244 .def_247)))
(let ((.def_251 (and .def_248 .def_250)))
(let ((.def_254 (and .def_251 .def_253)))
(let ((.def_161 (= .def_159 b826)))
(let ((.def_162 (not .def_161)))
(let ((.def_255 (and .def_162 .def_254)))
(let ((.def_257 (and .def_255 .def_256)))
(let ((.def_144 (= .def_134 b796)))
(let ((.def_145 (not .def_144)))
(let ((.def_258 (and .def_145 .def_257)))
(let ((.def_262 (and .def_258 .def_261)))
(let ((.def_265 (and .def_262 .def_264)))
(let ((.def_268 (and .def_265 .def_267)))
(let ((.def_141 (= .def_139 b861)))
(let ((.def_142 (not .def_141)))
(let ((.def_269 (and .def_142 .def_268)))
(let ((.def_271 (and .def_269 .def_270)))
(let ((.def_124 (= .def_114 b831)))
(let ((.def_125 (not .def_124)))
(let ((.def_272 (and .def_125 .def_271)))
(let ((.def_276 (and .def_272 .def_275)))
(let ((.def_279 (and .def_276 .def_278)))
(let ((.def_282 (and .def_279 .def_281)))
(let ((.def_121 (= .def_119 b896)))
(let ((.def_122 (not .def_121)))
(let ((.def_283 (and .def_122 .def_282)))
(let ((.def_285 (and .def_283 .def_284)))
(let ((.def_104 (= .def_94 b866)))
(let ((.def_105 (not .def_104)))
(let ((.def_286 (and .def_105 .def_285)))
(let ((.def_290 (and .def_286 .def_289)))
(let ((.def_293 (and .def_290 .def_292)))
(let ((.def_296 (and .def_293 .def_295)))
(let ((.def_101 (= .def_99 b931)))
(let ((.def_102 (not .def_101)))
(let ((.def_297 (and .def_102 .def_296)))
(let ((.def_299 (and .def_297 .def_298)))
(let ((.def_84 (= .def_74 b901)))
(let ((.def_85 (not .def_84)))
(let ((.def_300 (and .def_85 .def_299)))
(let ((.def_304 (and .def_300 .def_303)))
(let ((.def_307 (and .def_304 .def_306)))
(let ((.def_310 (and .def_307 .def_309)))
(let ((.def_81 (= .def_79 b966)))
(let ((.def_82 (not .def_81)))
(let ((.def_311 (and .def_82 .def_310)))
(let ((.def_313 (and .def_311 .def_312)))
(let ((.def_64 (= .def_54 b936)))
(let ((.def_65 (not .def_64)))
(let ((.def_314 (and .def_65 .def_313)))
(let ((.def_318 (and .def_314 .def_317)))
(let ((.def_321 (and .def_318 .def_320)))
(let ((.def_324 (and .def_321 .def_323)))
(let ((.def_61 (= .def_59 b1001)))
(let ((.def_62 (not .def_61)))
(let ((.def_325 (and .def_62 .def_324)))
(let ((.def_327 (and .def_325 .def_326)))
(let ((.def_330 (and .def_327 .def_329)))
(let ((.def_44 (= .def_34 b971)))
(let ((.def_45 (not .def_44)))
(let ((.def_331 (and .def_45 .def_330)))
(let ((.def_335 (and .def_331 .def_334)))
(let ((.def_338 (and .def_335 .def_337)))
(let ((.def_341 (and .def_338 .def_340)))
(let ((.def_41 (= .def_39 b1020)))
(let ((.def_42 (not .def_41)))
(let ((.def_342 (and .def_42 .def_341)))
(let ((.def_345 (and .def_342 .def_344)))
(let ((.def_348 (and .def_345 .def_347)))
(let ((.def_352 (and .def_348 .def_351)))
(let ((.def_28 (= .def_26 b1029)))
(let ((.def_29 (not .def_28)))
(let ((.def_353 (and .def_29 .def_352)))
.def_353))))))))))))))))))))))))))))))))))))))))))))))))))))))))))))))))))))))))))))))))))))))))))))))))))))))))))))))))))))))))))))))))))))))))))))))))))))))))))))))))))))))))))))))))))))))))))))))))))))))))))))))))))))))))))))))))))))))))))))))))))))))))))))))))))))))))))))))))))))))))))))))))))))))))))))))))))))))))))))))))
(check-sat)
